s td 103 8 124
b 1 21 24 26
b 2 22 23 25
b 3 23 25 93
b 4 24 26 94
b 5 25 93 123
b 6 26 94 124
b 7 57 60 62
b 8 58 59 61
b 9 59 61 111
b 10 60 62 112
b 11 61 85 111
b 12 62 86 112
b 13 83 86 88
b 14 84 85 87
b 15 85 87 111
b 16 86 88 112
b 17 9 87 111
b 18 10 88 112
b 19 89 92 94
b 20 90 91 93
b 21 91 93 99
b 22 92 94 100
b 23 93 99 123
b 24 94 100 124
b 25 1 2 5 9 17 18 42 110
b 26 1 3 5 9 110
b 27 1 3 8 110
b 28 1 2 9 17 18 42 109 110
b 29 1 2 6 9 42 109
b 30 2 4 6 9 109
b 31 2 4 7 109
b 32 1 2 9 10 17 18 109 110
b 33 9 10 17 18 109 110 114
b 34 9 10 17 109 110 113 114
b 35 10 109 110 112 113 114
b 36 105 110 112 114
b 37 107 109 112 113
b 38 9 106 109 110 113 114
b 39 9 106 108 110 113
b 40 9 106 108 111
b 41 5 17 18 42 43 44 53 54
b 42 17 18 20 43 44 53 54
b 43 17 18 19 20 43 53 54
b 44 16 17 18 19 20 54
b 45 11 16 18 20
b 46 14 16 17 19
b 47 15 17 18 19 20 53
b 48 12 15 17 20
b 49 13 15 18 19
b 50 5 42 43 44 53 54 69 70
b 51 31 32 53 54 55 56 69 70
b 52 31 32 53 54 55 56 79 80
b 53 31 32 33 34 79 80 101 102
b 54 30 31 32 33 34 101 102 122
b 55 28 31 32 33 34 122
b 56 28 32 34 36 122
b 57 27 32 34 36
b 58 30 31 34 101 102 121 122
b 59 30 31 34 35 121
b 60 29 31 34 35
b 61 101 102 116 118 121 122
b 62 96 98 101 102 116 118 122
b 63 96 98 102 115 116 118 122
b 64 96 98 100 102 115 116 118
b 65 96 100 102 115 118 120
b 66 96 100 102 104 120
b 67 95 100 102 104
b 68 100 115 116 124
b 69 96 98 102 116 118 122 123
b 70 96 97 98 102 116 122 123
b 71 96 97 99 123
b 72 97 98 116 117 122 123
b 73 97 98 103 116 117
b 74 103 116 117 119
b 75 33 34 79 80 82 101 102
b 76 33 79 80 81 82 101 102
b 77 78 79 80 81 82 102
b 78 73 78 80 82
b 79 76 78 79 81
b 80 75 79 80 81 82 101
b 81 74 75 79 82 101
b 82 74 75 77 101
b 83 47 53 54 55 56 80
b 84 47 52 53 55 80
b 85 50 52 53 55
b 86 51 53 54 55 56 79
b 87 48 51 53 56
b 88 49 51 54 55
b 89 31 32 55 56 69 70 72
b 90 31 32 55 69 70 71 72
b 91 32 66 69 70 71 72
b 92 32 63 66 70 72
b 93 32 63 66 68
b 94 31 64 69 70 71 72
b 95 31 64 65 70 71
b 96 31 64 65 67
b 97 5 41 42 43 44 69 70
b 98 38 41 42 43 44 70
b 99 37 38 42 44 70
b 100 37 38 46 70
b 101 39 41 42 43 44 69
b 102 39 40 42 43 69
b 103 39 40 45 69
1 4
2 3
3 5
4 6
5 23
6 24
7 10
8 9
9 11
10 12
11 15
12 16
13 16
14 15
15 17
16 18
17 40
18 35
19 22
20 21
21 23
22 24
23 71
24 68
25 26
25 28
25 41
26 27
28 29
28 32
29 30
30 31
32 33
33 34
34 35
34 38
35 36
35 37
38 39
39 40
41 42
41 50
42 43
43 44
43 47
44 45
44 46
47 48
47 49
50 51
50 97
51 52
51 89
52 53
52 83
52 86
53 54
53 75
54 55
54 58
55 56
56 57
58 59
58 61
59 60
61 62
62 63
62 69
63 64
64 65
64 68
65 66
66 67
69 70
70 71
70 72
72 73
73 74
75 76
76 77
76 80
77 78
77 79
80 81
81 82
83 84
84 85
86 87
86 88
89 90
90 91
90 94
91 92
92 93
94 95
95 96
97 98
97 101
98 99
99 100
101 102
102 103
